N = 10;
H = 5;
T = 2;

avail = array3d(1..N, 1..H, 1..T, [3, 1, 2, 7, 9, 4, 1, 0, 4, 10, 0, 5, 9, 10, 6, 0, 2, 9, 5, 3, 5, 3, 7, 9, 2, 4, 2, 10, 8, 10, 9, 2, 9, 6, 8, 10, 5, 8, 7, 6, 1, 4, 4, 7, 4, 7, 10, 1, 8, 5, 7, 2, 8, 8, 6, 4, 8, 4, 8, 3, 6, 6, 3, 2, 1, 5, 9, 5, 9, 8, 4, 3, 6, 4, 3, 0, 2, 2, 8, 2, 6, 9, 2, 5, 7, 3, 8, 0, 6, 7, 3, 2, 1, 4, 1, 8, 7, 5, 1, 1]);

r = array2d(1..H, 1..T, [5, 1, 0, 3, 2, 4, 4, 1, 3, 3]);
